solution status: optimal solution found
objective value:                      242541.07267347
d11(0,0)                                            1 	(obj:0)
d11(1,1)                                            1 	(obj:0)
d11(1,2)                                            1 	(obj:0)
d11(2,5)                                            1 	(obj:0)
d11(3,7)                                            1 	(obj:0)
d11(3,9)                                            1 	(obj:0)
d11(3,11)                                           1 	(obj:0)
d11(3,12)                            1.00000000000001 	(obj:0)
d11(3,13)                                           1 	(obj:0)
d11(4,15)                                           1 	(obj:0)
d11(4,16)                                           1 	(obj:0)
d11(4,17)                                           1 	(obj:0)
d11(4,18)                                           1 	(obj:0)
d11(4,19)                                           1 	(obj:0)
d11(4,20)                                           1 	(obj:0)
d11(4,21)                                           1 	(obj:0)
d11(4,22)                                           1 	(obj:0)
d11(4,23)                                           1 	(obj:0)
d11(4,25)                                           1 	(obj:0)
d11(4,26)                                           1 	(obj:0)
d11(4,27)                                           1 	(obj:0)
d11(4,28)                                           1 	(obj:0)
d11(4,29)                                           1 	(obj:0)
d11(4,30)                                           1 	(obj:0)
d11(5,31)                                           1 	(obj:0)
d11(5,32)                                           1 	(obj:0)
d11(5,33)                                           1 	(obj:0)
d11(5,34)                                           1 	(obj:0)
d11(5,35)                                           1 	(obj:0)
d11(5,36)                                           1 	(obj:0)
d11(5,37)                                           1 	(obj:0)
d11(5,38)                                           1 	(obj:0)
d11(5,39)                                           1 	(obj:0)
d11(5,40)                                           1 	(obj:0)
d11(5,41)                                           1 	(obj:0)
d11(5,42)                                           1 	(obj:0)
d11(5,43)                                           1 	(obj:0)
d11(5,44)                                           1 	(obj:0)
d11(5,45)                                           1 	(obj:0)
d11(5,46)                                           1 	(obj:0)
d11(5,47)                                           1 	(obj:0)
d11(5,48)                                           1 	(obj:0)
d11(5,49)                                           1 	(obj:0)
d11(5,50)                                           1 	(obj:0)
d11(5,51)                                           1 	(obj:0)
d11(5,52)                                           1 	(obj:0)
d11(5,53)                                           1 	(obj:0)
d11(5,54)                                           1 	(obj:0)
d11(5,55)                                           1 	(obj:0)
d11(5,56)                                           1 	(obj:0)
d11(5,57)                                           1 	(obj:0)
d11(5,58)                                           1 	(obj:0)
d11(5,59)                                           1 	(obj:0)
d11(5,60)                                           1 	(obj:0)
d11(5,61)                                           1 	(obj:0)
d11(5,62)                                           1 	(obj:0)
d11(6,63)                                           1 	(obj:0)
d11(6,65)                                           1 	(obj:0)
d11(6,67)                                           1 	(obj:0)
d11(6,69)                                           1 	(obj:0)
d11(6,71)                                           1 	(obj:0)
d11(6,73)                                           1 	(obj:0)
d11(6,75)                                           1 	(obj:0)
d11(6,79)                                           1 	(obj:0)
d11(6,81)                                           1 	(obj:0)
d11(6,83)                                           1 	(obj:0)
d11(6,85)                                           1 	(obj:0)
d11(6,87)                                           1 	(obj:0)
d11(6,89)                                           1 	(obj:0)
d11(6,91)                                           1 	(obj:0)
d11(6,93)                                           1 	(obj:0)
d11(6,95)                                           1 	(obj:0)
d11(6,97)                                           1 	(obj:0)
d11(6,99)                                           1 	(obj:0)
d11(6,101)                                          1 	(obj:0)
d11(6,103)                                          1 	(obj:0)
d11(6,105)                                          1 	(obj:0)
d11(6,107)                                          1 	(obj:0)
d11(6,109)                                          1 	(obj:0)
d11(6,111)                                          1 	(obj:0)
d11(6,113)                                          1 	(obj:0)
d11(6,115)                                          1 	(obj:0)
d11(6,117)                                          1 	(obj:0)
d11(6,119)                                          1 	(obj:0)
d11(6,121)                                          1 	(obj:0)
d11(6,123)                                          1 	(obj:0)
d11(6,125)                                          1 	(obj:0)
d12(2,4)                                            1 	(obj:0)
d12(2,6)                                            1 	(obj:0)
d12(6,64)                                           1 	(obj:0)
d12(6,66)                                           1 	(obj:0)
d12(6,68)                                           1 	(obj:0)
d12(6,70)                                           1 	(obj:0)
d12(6,72)                                           1 	(obj:0)
d12(6,74)                                           1 	(obj:0)
d12(6,76)                                           1 	(obj:0)
d12(6,78)                                           1 	(obj:0)
d12(6,80)                                           1 	(obj:0)
d12(6,82)                                           1 	(obj:0)
d12(6,84)                                           1 	(obj:0)
d12(6,86)                                           1 	(obj:0)
d12(6,88)                                           1 	(obj:0)
d12(6,90)                                           1 	(obj:0)
d12(6,92)                                           1 	(obj:0)
d12(6,94)                                           1 	(obj:0)
d12(6,96)                                           1 	(obj:0)
d12(6,98)                                           1 	(obj:0)
d12(6,100)                                          1 	(obj:0)
d12(6,102)                                          1 	(obj:0)
d12(6,104)                                          1 	(obj:0)
d12(6,106)                                          1 	(obj:0)
d12(6,108)                                          1 	(obj:0)
d12(6,110)                                          1 	(obj:0)
d12(6,112)                                          1 	(obj:0)
d12(6,114)                                          1 	(obj:0)
d12(6,116)                                          1 	(obj:0)
d12(6,118)                                          1 	(obj:0)
d12(6,120)                                          1 	(obj:0)
d12(6,122)                                          1 	(obj:0)
d12(6,124)                                          1 	(obj:0)
d12(6,126)                                          1 	(obj:0)
d21(4,15)                                           1 	(obj:0)
d21(5,31)                                           1 	(obj:0)
d21(5,32)                                           1 	(obj:0)
d21(5,33)                                           1 	(obj:0)
d21(5,34)                                           1 	(obj:0)
d21(5,35)                                           1 	(obj:0)
d21(5,36)                                           1 	(obj:0)
d21(5,37)                                           1 	(obj:0)
d21(5,39)                                           1 	(obj:0)
d21(5,40)                                           1 	(obj:0)
d21(5,41)                                           1 	(obj:0)
d21(5,43)                                           1 	(obj:0)
d21(5,47)                                           1 	(obj:0)
d21(5,48)                                           1 	(obj:0)
d21(5,49)                                           1 	(obj:0)
d21(5,51)                                           1 	(obj:0)
d21(5,55)                                           1 	(obj:0)
d21(6,63)                                           1 	(obj:0)
d21(6,64)                                           1 	(obj:0)
d21(6,65)                                           1 	(obj:0)
d21(6,66)                                           1 	(obj:0)
d21(6,67)                                           1 	(obj:0)
d21(6,68)                                           1 	(obj:0)
d21(6,69)                                           1 	(obj:0)
d21(6,70)                                           1 	(obj:0)
d21(6,71)                                           1 	(obj:0)
d21(6,72)                                           1 	(obj:0)
d21(6,73)                                           1 	(obj:0)
d21(6,74)                                           1 	(obj:0)
d21(6,75)                                           1 	(obj:0)
d21(6,76)                                           1 	(obj:0)
d21(6,79)                                           1 	(obj:0)
d21(6,80)                                           1 	(obj:0)
d21(6,81)                                           1 	(obj:0)
d21(6,82)                                           1 	(obj:0)
d21(6,83)                                           1 	(obj:0)
d21(6,84)                                           1 	(obj:0)
d21(6,85)                                           1 	(obj:0)
d21(6,87)                                           1 	(obj:0)
d21(6,88)                                           1 	(obj:0)
d21(6,89)                                           1 	(obj:0)
d21(6,91)                                           1 	(obj:0)
d21(6,95)                                           1 	(obj:0)
d21(6,96)                                           1 	(obj:0)
d21(6,97)                                           1 	(obj:0)
d21(6,98)                                           1 	(obj:0)
d21(6,99)                                           1 	(obj:0)
d21(6,100)                                          1 	(obj:0)
d21(6,103)                                          1 	(obj:0)
d21(6,104)                                          1 	(obj:0)
d21(6,105)                                          1 	(obj:0)
d21(6,107)                                          1 	(obj:0)
d21(6,111)                                          1 	(obj:0)
d21(6,112)                                          1 	(obj:0)
d21(6,113)                                          1 	(obj:0)
d21(6,115)                                          1 	(obj:0)
d21(6,119)                                          1 	(obj:0)
y2(6,100)                            1385.48851144895 	(obj:0)
y2(6,102)                            1385.48851144895 	(obj:0)
y2(6,104)                            1385.48851144895 	(obj:0)
y2(6,106)                            1385.48851144895 	(obj:0)
y2(6,108)                            1385.48851144895 	(obj:0)
y2(6,110)                            1385.48851144895 	(obj:0)
y2(6,112)                            1385.48851144895 	(obj:0)
y2(6,114)                            1385.48851144895 	(obj:0)
y2(6,116)                            1385.48851144895 	(obj:0)
y2(6,118)                            1385.48851144895 	(obj:0)
y2(6,120)                            1385.48851144895 	(obj:0)
y2(6,122)                            1385.48851144895 	(obj:0)
y2(6,124)                            1385.48851144895 	(obj:0)
y2(6,126)                            1385.48851144895 	(obj:0)
STE(1,1)                             6529.49984777772 	(obj:0)
STE(0,0)                                         9450 	(obj:0)
STE(1,2)                             8187.74974666654 	(obj:0)
STE(2,3)                             5773.49984777772 	(obj:0)
STE(2,4)                             7089.71393365421 	(obj:0)
STE(2,5)                             7431.74974666654 	(obj:0)
STE(2,6)                             8747.96383254303 	(obj:0)
STE(3,7)                             3359.24994888888 	(obj:0)
STE(3,8)                             5017.49984777777 	(obj:0)
STE(3,9)                             4675.46403476537 	(obj:0)
STE(3,10)                            6333.71393365421 	(obj:0)
STE(3,11)                             5017.4998477777 	(obj:0)
STE(3,12)                            6675.74974666654 	(obj:0)
STE(3,13)                            6333.71393365419 	(obj:0)
STE(3,14)                            7991.96383254303 	(obj:0)
STE(4,15)                            945.000050000033 	(obj:0)
STE(4,16)                            2603.24994888885 	(obj:0)
STE(4,17)                            2603.24994888892 	(obj:0)
STE(4,18)                            4261.49984777774 	(obj:0)
STE(4,19)                            2261.21413587652 	(obj:0)
STE(4,20)                            3919.46403476534 	(obj:0)
STE(4,21)                            3919.46403476537 	(obj:0)
STE(4,22)                            5577.71393365418 	(obj:0)
STE(4,23)                            2603.24994888885 	(obj:0)
STE(4,24)                             4261.4998477777 	(obj:0)
STE(4,25)                             4261.4998477777 	(obj:0)
STE(4,26)                            5919.74974666651 	(obj:0)
STE(4,27)                            3919.46403476534 	(obj:0)
STE(4,28)                            5577.71393365416 	(obj:0)
STE(4,29)                            5577.71393365419 	(obj:0)
STE(4,30)                              7235.963832543 	(obj:0)
STE(5,31)                           -3273.74964666652 	(obj:0)
STE(5,32)                           -1615.49974777771 	(obj:0)
STE(5,33)                           -1615.49974777771 	(obj:0)
STE(5,34)                            42.7501511111115 	(obj:0)
STE(5,35)                           -1615.49974777763 	(obj:0)
STE(5,36)                            42.7501511111823 	(obj:0)
STE(5,37)                            42.7501511111825 	(obj:0)
STE(5,38)                                  1701.00005 	(obj:0)
STE(5,39)                           -1957.53556079004 	(obj:0)
STE(5,40)                           -299.285661901219 	(obj:0)
STE(5,41)                            -299.28566190122 	(obj:0)
STE(5,42)                             1358.9642369876 	(obj:0)
STE(5,43)                           -299.285661901191 	(obj:0)
STE(5,44)                            1358.96423698763 	(obj:0)
STE(5,45)                            1358.96423698763 	(obj:0)
STE(5,46)                            3017.21413587644 	(obj:0)
STE(5,47)                           -1615.49974777771 	(obj:0)
STE(5,48)                            42.7501511111115 	(obj:0)
STE(5,49)                            42.7501511111404 	(obj:0)
STE(5,50)                            1701.00004999996 	(obj:0)
STE(5,51)                            42.7501511111404 	(obj:0)
STE(5,52)                            1701.00004999996 	(obj:0)
STE(5,53)                            1701.00004999996 	(obj:0)
STE(5,54)                            3359.24994888878 	(obj:0)
STE(5,55)                           -299.285661901216 	(obj:0)
STE(5,56)                             1358.9642369876 	(obj:0)
STE(5,57)                             1358.9642369876 	(obj:0)
STE(5,58)                            3017.21413587642 	(obj:0)
STE(5,59)                            1358.96423698763 	(obj:0)
STE(5,60)                            3017.21413587645 	(obj:0)
STE(5,61)                            3017.21413587645 	(obj:0)
STE(5,62)                            4675.46403476526 	(obj:0)
STE(6,63)                           -4029.74964666648 	(obj:0)
STE(6,64)                           -2713.53556079002 	(obj:0)
STE(6,65)                           -2371.49974777771 	(obj:0)
STE(6,66)                            -1055.2856619012 	(obj:0)
STE(6,67)                           -2371.49974777771 	(obj:0)
STE(6,68)                            -1055.2856619012 	(obj:0)
STE(6,69)                           -713.249848888888 	(obj:0)
STE(6,70)                            602.964236987617 	(obj:0)
STE(6,71)                           -2371.49974777759 	(obj:0)
STE(6,72)                           -1055.28566190113 	(obj:0)
STE(6,73)                           -713.249848888777 	(obj:0)
STE(6,74)                            602.964236987688 	(obj:0)
STE(6,75)                           -713.249848888818 	(obj:0)
STE(6,76)                            602.964236987688 	(obj:0)
STE(6,77)                                   945.00005 	(obj:0)
STE(6,78)                            2261.21413587651 	(obj:0)
STE(6,79)                              -2713.53556079 	(obj:0)
STE(6,80)                           -1397.32147491353 	(obj:0)
STE(6,81)                           -1055.28566190118 	(obj:0)
STE(6,82)                            260.928423975286 	(obj:0)
STE(6,83)                           -1055.28566190118 	(obj:0)
STE(6,84)                            260.928423975286 	(obj:0)
STE(6,85)                            602.964236987598 	(obj:0)
STE(6,86)                             1919.1783228641 	(obj:0)
STE(6,87)                           -1055.28566190115 	(obj:0)
STE(6,88)                            260.928423975315 	(obj:0)
STE(6,89)                            602.964236987627 	(obj:0)
STE(6,90)                            1919.17832286413 	(obj:0)
STE(6,91)                            602.964236987627 	(obj:0)
STE(6,92)                            1919.17832286413 	(obj:0)
STE(6,93)                            2261.21413587644 	(obj:0)
STE(6,94)                            3577.42822175295 	(obj:0)
STE(6,95)                           -2371.49974777766 	(obj:0)
STE(6,96)                            -1055.2856619012 	(obj:0)
STE(6,97)                           -713.249848888888 	(obj:0)
STE(6,98)                            602.964236987617 	(obj:0)
STE(6,99)                            -713.24984888886 	(obj:0)
STE(6,100)                           602.964236987646 	(obj:0)
STE(6,101)                           945.000049999958 	(obj:0)
STE(6,102)                           2261.21413587646 	(obj:0)
STE(6,103)                           -713.24984888886 	(obj:0)
STE(6,104)                           602.964236987646 	(obj:0)
STE(6,105)                           945.000049999958 	(obj:0)
STE(6,106)                           2261.21413587646 	(obj:0)
STE(6,107)                           945.000049999958 	(obj:0)
STE(6,108)                           2261.21413587646 	(obj:0)
STE(6,109)                           2603.24994888878 	(obj:0)
STE(6,110)                           3919.46403476528 	(obj:0)
STE(6,111)                          -1055.28566190118 	(obj:0)
STE(6,112)                           260.928423975289 	(obj:0)
STE(6,113)                           602.964236987601 	(obj:0)
STE(6,114)                           1919.17832286411 	(obj:0)
STE(6,115)                           602.964236987601 	(obj:0)
STE(6,116)                           1919.17832286411 	(obj:0)
STE(6,117)                           2261.21413587642 	(obj:0)
STE(6,118)                           3577.42822175292 	(obj:0)
STE(6,119)                           602.964236987629 	(obj:0)
STE(6,120)                           1919.17832286414 	(obj:0)
STE(6,121)                           2261.21413587645 	(obj:0)
STE(6,122)                           3577.42822175295 	(obj:0)
STE(6,123)                           2261.21413587645 	(obj:0)
STE(6,124)                           3577.42822175295 	(obj:0)
STE(6,125)                           3919.46403476526 	(obj:0)
STE(6,126)                           5235.67812064177 	(obj:0)
BG(5)                                2380.71611287452 	(obj:10)
WB(1)                                3259.55177567504 	(obj:0)
AVE(1)                               3259.55177567504 	(obj:0)
WB(2)                                586.145949266161 	(obj:0)
AVE(2)                               3259.55588804169 	(obj:0)
AVE(3)                               3579.36165209166 	(obj:0)
AVE(4)                               3579.36576445831 	(obj:0)
AVE(5)                               3472.77007794174 	(obj:0)
WB(6)                                372.951956291289 	(obj:0)
AVE(6)                                3046.3618950668 	(obj:0)
WG(2)                                2673.40993877553 	(obj:10)
WG(3)                                3579.36165209166 	(obj:10)
WG(4)                                3579.36576445831 	(obj:10)
WG(5)                                3472.77007794174 	(obj:10)
WG(6)                                2673.40993877551 	(obj:10)
BG(1)                                 4661.2162010205 	(obj:10)
BG(3)                                616.930846887932 	(obj:10)
BG(4)                                616.926734521282 	(obj:10)
y1(1,1)                              1948.05013700005 	(obj:0)
y1(1,2)                              455.625228000112 	(obj:0)
y1(3,7)                              1492.42490899996 	(obj:0)
y1(3,9)                              1492.42490899996 	(obj:0)
y1(3,11)                             1492.42490899996 	(obj:0)
y1(3,13)                             1492.42490899996 	(obj:0)
y1(4,15)                             1492.42490899996 	(obj:0)
y1(4,17)                             1492.42490899996 	(obj:0)
y1(4,19)                             1492.42490899996 	(obj:0)
y1(4,21)                             1492.42490899996 	(obj:0)
y1(4,23)                             1492.42490899996 	(obj:0)
y1(4,25)                             1492.42490899996 	(obj:0)
y1(4,27)                             1492.42490899996 	(obj:0)
y1(4,29)                             1492.42490899996 	(obj:0)
y1(5,31)                              3116.4747269999 	(obj:0)
y1(5,32)                             1624.04981799997 	(obj:0)
y1(5,33)                              3116.4747269999 	(obj:0)
y1(5,34)                             1624.04981799996 	(obj:0)
y1(5,35)                              3116.4747269999 	(obj:0)
y1(5,36)                             1624.04981799996 	(obj:0)
y1(5,37)                              3116.4747269999 	(obj:0)
y1(5,38)                             1624.04981799996 	(obj:0)
y1(5,39)                              3116.4747269999 	(obj:0)
y1(5,40)                             1624.04981799996 	(obj:0)
y1(5,41)                              3116.4747269999 	(obj:0)
y1(5,42)                             1624.04981799996 	(obj:0)
y1(5,43)                              3116.4747269999 	(obj:0)
y1(5,44)                             1624.04981799996 	(obj:0)
y1(5,45)                              3116.4747269999 	(obj:0)
y1(5,46)                             1624.04981799996 	(obj:0)
y1(5,47)                              3116.4747269999 	(obj:0)
y1(5,48)                             1624.04981799996 	(obj:0)
y1(5,49)                              3116.4747269999 	(obj:0)
y1(5,50)                             1624.04981799996 	(obj:0)
y1(5,51)                              3116.4747269999 	(obj:0)
y1(5,52)                             1624.04981799996 	(obj:0)
y1(5,53)                              3116.4747269999 	(obj:0)
y1(5,54)                             1624.04981799996 	(obj:0)
y1(5,55)                              3116.4747269999 	(obj:0)
y1(5,56)                             1624.04981799996 	(obj:0)
y1(5,57)                              3116.4747269999 	(obj:0)
y1(5,58)                             1624.04981799996 	(obj:0)
y1(5,59)                              3116.4747269999 	(obj:0)
y1(5,60)                             1624.04981799996 	(obj:0)
y1(5,61)                              3116.4747269999 	(obj:0)
y1(5,62)                             1624.04981799996 	(obj:0)
y2(2,4)                              1385.48851144893 	(obj:0)
y2(2,6)                              1385.48851144893 	(obj:0)
y2(6,64)                             1385.48851144895 	(obj:0)
y2(6,66)                             1385.48851144895 	(obj:0)
y2(6,68)                             1385.48851144895 	(obj:0)
y2(6,70)                             1385.48851144895 	(obj:0)
y2(6,72)                             1385.48851144895 	(obj:0)
y2(6,74)                             1385.48851144895 	(obj:0)
y2(6,76)                             1385.48851144895 	(obj:0)
y2(6,78)                             1385.48851144895 	(obj:0)
y2(6,80)                             1385.48851144895 	(obj:0)
y2(6,82)                             1385.48851144895 	(obj:0)
y2(6,84)                             1385.48851144895 	(obj:0)
y2(6,86)                             1385.48851144895 	(obj:0)
y2(6,88)                             1385.48851144895 	(obj:0)
y2(6,90)                             1385.48851144895 	(obj:0)
y2(6,92)                             1385.48851144895 	(obj:0)
y2(6,94)                             1385.48851144895 	(obj:0)
y2(6,96)                             1385.48851144895 	(obj:0)
y2(6,98)                             1385.48851144895 	(obj:0)
